1462
77 49 47 95 93 15 60 56 26 45 19 63 94 71 17 62 1 97 43 84 36 31 28 74 87 81 70 85 75 79 86 64 5 82 66 25 54 53 13 55 42 35 46 27 92 51 91 83 20 57 80 6 68 50 9 61 29 12 67 37 10 65 21 23 88 38 69 14 44 73 24 30 33 76 59 89 8 99 16 58 96 22 40 32 90 3 18 2 11 78 4 48 98 34 41 72 7 52 39 
